data/lp_files/pEFS/85_4.lp
\ Model foo
\ LP format - for model browsing. Use MPS format to capture full model detail.
Minimize
  z
Subject To
 allocateEach[1]: x[1,1] + x[2,1] + x[3,1] + x[4,1] + x[5,1] = 1
 allocateEach[2]: x[1,2] + x[2,2] + x[3,2] + x[4,2] + x[5,2] = 1
 allocateEach[3]: x[1,3] + x[2,3] + x[3,3] + x[4,3] + x[5,3] = 1
 allocateEach[4]: x[1,4] + x[2,4] + x[3,4] + x[4,4] + x[5,4] = 1
 allocateEach[5]: x[1,5] + x[2,5] + x[3,5] + x[4,5] + x[5,5] = 1
 allocateAllCash: cashProportion[1] + cashProportion[2] + cashProportion[3]
   + cashProportion[4] + cashProportion[5] = 1
 findWorstP[1,2]: z + 0.0832112901078418 cashProportion[1]
   - 0.0832112901078418 cashProportion[2] + 0.3134070030621755 x[1,1]
   + 0.051125016642258 x[1,2] + 0.2891425908667288 x[1,3]
   + 0.246338703235255 x[1,4] + 0.0167753960857409 x[1,5]
   - 0.3134070030621755 x[2,1] - 0.051125016642258 x[2,2]
   - 0.2891425908667288 x[2,3] - 0.246338703235255 x[2,4]
   - 0.0167753960857409 x[2,5] >= 0
 findWorstP[1,3]: z + 0.0832112901078418 cashProportion[1]
   - 0.0832112901078418 cashProportion[3] + 0.3134070030621755 x[1,1]
   + 0.051125016642258 x[1,2] + 0.2891425908667288 x[1,3]
   + 0.246338703235255 x[1,4] + 0.0167753960857409 x[1,5]
   - 0.3134070030621755 x[3,1] - 0.051125016642258 x[3,2]
   - 0.2891425908667288 x[3,3] - 0.246338703235255 x[3,4]
   - 0.0167753960857409 x[3,5] >= 0
 findWorstP[1,4]: z + 0.0832112901078418 cashProportion[1]
   - 0.0832112901078418 cashProportion[4] + 0.3134070030621755 x[1,1]
   + 0.051125016642258 x[1,2] + 0.2891425908667288 x[1,3]
   + 0.246338703235255 x[1,4] + 0.0167753960857409 x[1,5]
   - 0.3134070030621755 x[4,1] - 0.051125016642258 x[4,2]
   - 0.2891425908667288 x[4,3] - 0.246338703235255 x[4,4]
   - 0.0167753960857409 x[4,5] >= 0
 findWorstP[1,5]: z + 0.0832112901078418 cashProportion[1]
   - 0.0832112901078418 cashProportion[5] + 0.3134070030621755 x[1,1]
   + 0.051125016642258 x[1,2] + 0.2891425908667288 x[1,3]
   + 0.246338703235255 x[1,4] + 0.0167753960857409 x[1,5]
   - 0.3134070030621755 x[5,1] - 0.051125016642258 x[5,2]
   - 0.2891425908667288 x[5,3] - 0.246338703235255 x[5,4]
   - 0.0167753960857409 x[5,5] >= 0
 findWorstP[2,1]: z - 0.09411941871847 cashProportion[1]
   + 0.09411941871847 cashProportion[2] - 0.0352006626007078 x[1,1]
   - 0.2050673895038024 x[1,2] - 0.3049469166478428 x[1,3]
   - 0.1894435659965364 x[1,4] - 0.1712220465326406 x[1,5]
   + 0.0352006626007078 x[2,1] + 0.2050673895038024 x[2,2]
   + 0.3049469166478428 x[2,3] + 0.1894435659965364 x[2,4]
   + 0.1712220465326406 x[2,5] >= 0
 findWorstP[2,3]: z + 0.09411941871847 cashProportion[2]
   - 0.09411941871847 cashProportion[3] + 0.0352006626007078 x[2,1]
   + 0.2050673895038024 x[2,2] + 0.3049469166478428 x[2,3]
   + 0.1894435659965364 x[2,4] + 0.1712220465326406 x[2,5]
   - 0.0352006626007078 x[3,1] - 0.2050673895038024 x[3,2]
   - 0.3049469166478428 x[3,3] - 0.1894435659965364 x[3,4]
   - 0.1712220465326406 x[3,5] >= 0
 findWorstP[2,4]: z + 0.09411941871847 cashProportion[2]
   - 0.09411941871847 cashProportion[4] + 0.0352006626007078 x[2,1]
   + 0.2050673895038024 x[2,2] + 0.3049469166478428 x[2,3]
   + 0.1894435659965364 x[2,4] + 0.1712220465326406 x[2,5]
   - 0.0352006626007078 x[4,1] - 0.2050673895038024 x[4,2]
   - 0.3049469166478428 x[4,3] - 0.1894435659965364 x[4,4]
   - 0.1712220465326406 x[4,5] >= 0
 findWorstP[2,5]: z + 0.09411941871847 cashProportion[2]
   - 0.09411941871847 cashProportion[5] + 0.0352006626007078 x[2,1]
   + 0.2050673895038024 x[2,2] + 0.3049469166478428 x[2,3]
   + 0.1894435659965364 x[2,4] + 0.1712220465326406 x[2,5]
   - 0.0352006626007078 x[5,1] - 0.2050673895038024 x[5,2]
   - 0.3049469166478428 x[5,3] - 0.1894435659965364 x[5,4]
   - 0.1712220465326406 x[5,5] >= 0
 findWorstP[3,1]: z - 0.0735380633015649 cashProportion[1]
   + 0.0735380633015649 cashProportion[3] - 0.2159665843040357 x[1,1]
   - 0.2568831627250264 x[1,2] - 0.1727262030827156 x[1,3]
   - 0.0678315095893634 x[1,4] - 0.2130544769972938 x[1,5]
   + 0.2159665843040357 x[3,1] + 0.2568831627250264 x[3,2]
   + 0.1727262030827156 x[3,3] + 0.0678315095893634 x[3,4]
   + 0.2130544769972938 x[3,5] >= 0
 findWorstP[3,2]: z - 0.0735380633015649 cashProportion[2]
   + 0.0735380633015649 cashProportion[3] - 0.2159665843040357 x[2,1]
   - 0.2568831627250264 x[2,2] - 0.1727262030827156 x[2,3]
   - 0.0678315095893634 x[2,4] - 0.2130544769972938 x[2,5]
   + 0.2159665843040357 x[3,1] + 0.2568831627250264 x[3,2]
   + 0.1727262030827156 x[3,3] + 0.0678315095893634 x[3,4]
   + 0.2130544769972938 x[3,5] >= 0
 findWorstP[3,4]: z + 0.0735380633015649 cashProportion[3]
   - 0.0735380633015649 cashProportion[4] + 0.2159665843040357 x[3,1]
   + 0.2568831627250264 x[3,2] + 0.1727262030827156 x[3,3]
   + 0.0678315095893634 x[3,4] + 0.2130544769972938 x[3,5]
   - 0.2159665843040357 x[4,1] - 0.2568831627250264 x[4,2]
   - 0.1727262030827156 x[4,3] - 0.0678315095893634 x[4,4]
   - 0.2130544769972938 x[4,5] >= 0
 findWorstP[3,5]: z + 0.0735380633015649 cashProportion[3]
   - 0.0735380633015649 cashProportion[5] + 0.2159665843040357 x[3,1]
   + 0.2568831627250264 x[3,2] + 0.1727262030827156 x[3,3]
   + 0.0678315095893634 x[3,4] + 0.2130544769972938 x[3,5]
   - 0.2159665843040357 x[5,1] - 0.2568831627250264 x[5,2]
   - 0.1727262030827156 x[5,3] - 0.0678315095893634 x[5,4]
   - 0.2130544769972938 x[5,5] >= 0
 findWorstP[4,1]: z - 0.066190097961345 cashProportion[1]
   + 0.066190097961345 cashProportion[4] - 0.2172359015091342 x[1,1]
   - 0.2593328038125496 x[1,2] - 0.2267143235371988 x[1,3]
   - 0.0873179772306063 x[1,4] - 0.143208895949166 x[1,5]
   + 0.2172359015091342 x[4,1] + 0.2593328038125496 x[4,2]
   + 0.2267143235371988 x[4,3] + 0.0873179772306063 x[4,4]
   + 0.143208895949166 x[4,5] >= 0
 findWorstP[4,2]: z - 0.066190097961345 cashProportion[2]
   + 0.066190097961345 cashProportion[4] - 0.2172359015091342 x[2,1]
   - 0.2593328038125496 x[2,2] - 0.2267143235371988 x[2,3]
   - 0.0873179772306063 x[2,4] - 0.143208895949166 x[2,5]
   + 0.2172359015091342 x[4,1] + 0.2593328038125496 x[4,2]
   + 0.2267143235371988 x[4,3] + 0.0873179772306063 x[4,4]
   + 0.143208895949166 x[4,5] >= 0
 findWorstP[4,3]: z - 0.066190097961345 cashProportion[3]
   + 0.066190097961345 cashProportion[4] - 0.2172359015091342 x[3,1]
   - 0.2593328038125496 x[3,2] - 0.2267143235371988 x[3,3]
   - 0.0873179772306063 x[3,4] - 0.143208895949166 x[3,5]
   + 0.2172359015091342 x[4,1] + 0.2593328038125496 x[4,2]
   + 0.2267143235371988 x[4,3] + 0.0873179772306063 x[4,4]
   + 0.143208895949166 x[4,5] >= 0
 findWorstP[4,5]: z + 0.066190097961345 cashProportion[4]
   - 0.066190097961345 cashProportion[5] + 0.2172359015091342 x[4,1]
   + 0.2593328038125496 x[4,2] + 0.2267143235371988 x[4,3]
   + 0.0873179772306063 x[4,4] + 0.143208895949166 x[4,5]
   - 0.2172359015091342 x[5,1] - 0.2593328038125496 x[5,2]
   - 0.2267143235371988 x[5,3] - 0.0873179772306063 x[5,4]
   - 0.143208895949166 x[5,5] >= 0
 findWorstP[5,1]: z - 0.0637234910277325 cashProportion[1]
   + 0.0637234910277325 cashProportion[5] - 0.2307300163132137 x[1,1]
   - 0.0796543637846656 x[1,2] - 0.2264987765089723 x[1,3]
   - 0.2286908646003263 x[1,4] - 0.1707024877650898 x[1,5]
   + 0.2307300163132137 x[5,1] + 0.0796543637846656 x[5,2]
   + 0.2264987765089723 x[5,3] + 0.2286908646003263 x[5,4]
   + 0.1707024877650898 x[5,5] >= 0
 findWorstP[5,2]: z - 0.0637234910277325 cashProportion[2]
   + 0.0637234910277325 cashProportion[5] - 0.2307300163132137 x[2,1]
   - 0.0796543637846656 x[2,2] - 0.2264987765089723 x[2,3]
   - 0.2286908646003263 x[2,4] - 0.1707024877650898 x[2,5]
   + 0.2307300163132137 x[5,1] + 0.0796543637846656 x[5,2]
   + 0.2264987765089723 x[5,3] + 0.2286908646003263 x[5,4]
   + 0.1707024877650898 x[5,5] >= 0
 findWorstP[5,3]: z - 0.0637234910277325 cashProportion[3]
   + 0.0637234910277325 cashProportion[5] - 0.2307300163132137 x[3,1]
   - 0.0796543637846656 x[3,2] - 0.2264987765089723 x[3,3]
   - 0.2286908646003263 x[3,4] - 0.1707024877650898 x[3,5]
   + 0.2307300163132137 x[5,1] + 0.0796543637846656 x[5,2]
   + 0.2264987765089723 x[5,3] + 0.2286908646003263 x[5,4]
   + 0.1707024877650898 x[5,5] >= 0
 findWorstP[5,4]: z - 0.0637234910277325 cashProportion[4]
   + 0.0637234910277325 cashProportion[5] - 0.2307300163132137 x[4,1]
   - 0.0796543637846656 x[4,2] - 0.2264987765089723 x[4,3]
   - 0.2286908646003263 x[4,4] - 0.1707024877650898 x[4,5]
   + 0.2307300163132137 x[5,1] + 0.0796543637846656 x[5,2]
   + 0.2264987765089723 x[5,3] + 0.2286908646003263 x[5,4]
   + 0.1707024877650898 x[5,5] >= 0
Bounds
 z <= 1
 -infinity <= cashProportion[1] <= 1
 -infinity <= cashProportion[2] <= 1
 -infinity <= cashProportion[3] <= 1
 -infinity <= cashProportion[4] <= 1
 -infinity <= cashProportion[5] <= 1
Binaries
 x[1,1] x[1,2] x[1,3] x[1,4] x[1,5] x[2,1] x[2,2] x[2,3] x[2,4] x[2,5]
 x[3,1] x[3,2] x[3,3] x[3,4] x[3,5] x[4,1] x[4,2] x[4,3] x[4,4] x[4,5]
 x[5,1] x[5,2] x[5,3] x[5,4] x[5,5]
End
