data/mps_files/pEFS/85_4.mps
NAME foo
ROWS
 N  OBJ
 E  allocateEach[1]
 E  allocateEach[2]
 E  allocateEach[3]
 E  allocateEach[4]
 E  allocateEach[5]
 E  allocateAllCash
 G  findWorstP[1,2]
 G  findWorstP[1,3]
 G  findWorstP[1,4]
 G  findWorstP[1,5]
 G  findWorstP[2,1]
 G  findWorstP[2,3]
 G  findWorstP[2,4]
 G  findWorstP[2,5]
 G  findWorstP[3,1]
 G  findWorstP[3,2]
 G  findWorstP[3,4]
 G  findWorstP[3,5]
 G  findWorstP[4,1]
 G  findWorstP[4,2]
 G  findWorstP[4,3]
 G  findWorstP[4,5]
 G  findWorstP[5,1]
 G  findWorstP[5,2]
 G  findWorstP[5,3]
 G  findWorstP[5,4]
COLUMNS
    z         OBJ       1
    z         findWorstP[1,2]  1
    z         findWorstP[1,3]  1
    z         findWorstP[1,4]  1
    z         findWorstP[1,5]  1
    z         findWorstP[2,1]  1
    z         findWorstP[2,3]  1
    z         findWorstP[2,4]  1
    z         findWorstP[2,5]  1
    z         findWorstP[3,1]  1
    z         findWorstP[3,2]  1
    z         findWorstP[3,4]  1
    z         findWorstP[3,5]  1
    z         findWorstP[4,1]  1
    z         findWorstP[4,2]  1
    z         findWorstP[4,3]  1
    z         findWorstP[4,5]  1
    z         findWorstP[5,1]  1
    z         findWorstP[5,2]  1
    z         findWorstP[5,3]  1
    z         findWorstP[5,4]  1
    cashProportion[1]  allocateAllCash  1
    cashProportion[1]  findWorstP[1,2]  8.3211290107841840e-02
    cashProportion[1]  findWorstP[1,3]  8.3211290107841840e-02
    cashProportion[1]  findWorstP[1,4]  8.3211290107841840e-02
    cashProportion[1]  findWorstP[1,5]  8.3211290107841840e-02
    cashProportion[1]  findWorstP[2,1]  -9.4119418718469988e-02
    cashProportion[1]  findWorstP[3,1]  -7.3538063301564885e-02
    cashProportion[1]  findWorstP[4,1]  -6.6190097961344979e-02
    cashProportion[1]  findWorstP[5,1]  -6.3723491027732476e-02
    cashProportion[2]  allocateAllCash  1
    cashProportion[2]  findWorstP[1,2]  -8.3211290107841840e-02
    cashProportion[2]  findWorstP[2,1]  9.4119418718469988e-02
    cashProportion[2]  findWorstP[2,3]  9.4119418718469988e-02
    cashProportion[2]  findWorstP[2,4]  9.4119418718469988e-02
    cashProportion[2]  findWorstP[2,5]  9.4119418718469988e-02
    cashProportion[2]  findWorstP[3,2]  -7.3538063301564885e-02
    cashProportion[2]  findWorstP[4,2]  -6.6190097961344979e-02
    cashProportion[2]  findWorstP[5,2]  -6.3723491027732476e-02
    cashProportion[3]  allocateAllCash  1
    cashProportion[3]  findWorstP[1,3]  -8.3211290107841840e-02
    cashProportion[3]  findWorstP[2,3]  -9.4119418718469988e-02
    cashProportion[3]  findWorstP[3,1]  7.3538063301564885e-02
    cashProportion[3]  findWorstP[3,2]  7.3538063301564885e-02
    cashProportion[3]  findWorstP[3,4]  7.3538063301564885e-02
    cashProportion[3]  findWorstP[3,5]  7.3538063301564885e-02
    cashProportion[3]  findWorstP[4,3]  -6.6190097961344979e-02
    cashProportion[3]  findWorstP[5,3]  -6.3723491027732476e-02
    cashProportion[4]  allocateAllCash  1
    cashProportion[4]  findWorstP[1,4]  -8.3211290107841840e-02
    cashProportion[4]  findWorstP[2,4]  -9.4119418718469988e-02
    cashProportion[4]  findWorstP[3,4]  -7.3538063301564885e-02
    cashProportion[4]  findWorstP[4,1]  6.6190097961344979e-02
    cashProportion[4]  findWorstP[4,2]  6.6190097961344979e-02
    cashProportion[4]  findWorstP[4,3]  6.6190097961344979e-02
    cashProportion[4]  findWorstP[4,5]  6.6190097961344979e-02
    cashProportion[4]  findWorstP[5,4]  -6.3723491027732476e-02
    cashProportion[5]  allocateAllCash  1
    cashProportion[5]  findWorstP[1,5]  -8.3211290107841840e-02
    cashProportion[5]  findWorstP[2,5]  -9.4119418718469988e-02
    cashProportion[5]  findWorstP[3,5]  -7.3538063301564885e-02
    cashProportion[5]  findWorstP[4,5]  -6.6190097961344979e-02
    cashProportion[5]  findWorstP[5,1]  6.3723491027732476e-02
    cashProportion[5]  findWorstP[5,2]  6.3723491027732476e-02
    cashProportion[5]  findWorstP[5,3]  6.3723491027732476e-02
    cashProportion[5]  findWorstP[5,4]  6.3723491027732476e-02
    MARKER    'MARKER'                 'INTORG'
    x[1,1]    allocateEach[1]  1
    x[1,1]    findWorstP[1,2]  3.1340700306217550e-01
    x[1,1]    findWorstP[1,3]  3.1340700306217550e-01
    x[1,1]    findWorstP[1,4]  3.1340700306217550e-01
    x[1,1]    findWorstP[1,5]  3.1340700306217550e-01
    x[1,1]    findWorstP[2,1]  -3.5200662600707776e-02
    x[1,1]    findWorstP[3,1]  -2.1596658430403573e-01
    x[1,1]    findWorstP[4,1]  -2.1723590150913422e-01
    x[1,1]    findWorstP[5,1]  -2.3073001631321374e-01
    x[1,2]    allocateEach[2]  1
    x[1,2]    findWorstP[1,2]  5.1125016642258020e-02
    x[1,2]    findWorstP[1,3]  5.1125016642258020e-02
    x[1,2]    findWorstP[1,4]  5.1125016642258020e-02
    x[1,2]    findWorstP[1,5]  5.1125016642258020e-02
    x[1,2]    findWorstP[2,1]  -2.0506738950380241e-01
    x[1,2]    findWorstP[3,1]  -2.5688316272502643e-01
    x[1,2]    findWorstP[4,1]  -2.5933280381254964e-01
    x[1,2]    findWorstP[5,1]  -7.9654363784665588e-02
    x[1,3]    allocateEach[3]  1
    x[1,3]    findWorstP[1,2]  2.8914259086672883e-01
    x[1,3]    findWorstP[1,3]  2.8914259086672883e-01
    x[1,3]    findWorstP[1,4]  2.8914259086672883e-01
    x[1,3]    findWorstP[1,5]  2.8914259086672883e-01
    x[1,3]    findWorstP[2,1]  -3.0494691664784279e-01
    x[1,3]    findWorstP[3,1]  -1.7272620308271561e-01
    x[1,3]    findWorstP[4,1]  -2.2671432353719881e-01
    x[1,3]    findWorstP[5,1]  -2.2649877650897229e-01
    x[1,4]    allocateEach[4]  1
    x[1,4]    findWorstP[1,2]  2.4633870323525497e-01
    x[1,4]    findWorstP[1,3]  2.4633870323525497e-01
    x[1,4]    findWorstP[1,4]  2.4633870323525497e-01
    x[1,4]    findWorstP[1,5]  2.4633870323525497e-01
    x[1,4]    findWorstP[2,1]  -1.8944356599653639e-01
    x[1,4]    findWorstP[3,1]  -6.7831509589363445e-02
    x[1,4]    findWorstP[4,1]  -8.7317977230606289e-02
    x[1,4]    findWorstP[5,1]  -2.2869086460032631e-01
    x[1,5]    allocateEach[5]  1
    x[1,5]    findWorstP[1,2]  1.6775396085740916e-02
    x[1,5]    findWorstP[1,3]  1.6775396085740916e-02
    x[1,5]    findWorstP[1,4]  1.6775396085740916e-02
    x[1,5]    findWorstP[1,5]  1.6775396085740916e-02
    x[1,5]    findWorstP[2,1]  -1.7122204653264059e-01
    x[1,5]    findWorstP[3,1]  -2.1305447699729380e-01
    x[1,5]    findWorstP[4,1]  -0.143208895949166
    x[1,5]    findWorstP[5,1]  -1.7070248776508976e-01
    x[2,1]    allocateEach[1]  1
    x[2,1]    findWorstP[1,2]  -3.1340700306217550e-01
    x[2,1]    findWorstP[2,1]  3.5200662600707776e-02
    x[2,1]    findWorstP[2,3]  3.5200662600707776e-02
    x[2,1]    findWorstP[2,4]  3.5200662600707776e-02
    x[2,1]    findWorstP[2,5]  3.5200662600707776e-02
    x[2,1]    findWorstP[3,2]  -2.1596658430403573e-01
    x[2,1]    findWorstP[4,2]  -2.1723590150913422e-01
    x[2,1]    findWorstP[5,2]  -2.3073001631321374e-01
    x[2,2]    allocateEach[2]  1
    x[2,2]    findWorstP[1,2]  -5.1125016642258020e-02
    x[2,2]    findWorstP[2,1]  2.0506738950380241e-01
    x[2,2]    findWorstP[2,3]  2.0506738950380241e-01
    x[2,2]    findWorstP[2,4]  2.0506738950380241e-01
    x[2,2]    findWorstP[2,5]  2.0506738950380241e-01
    x[2,2]    findWorstP[3,2]  -2.5688316272502643e-01
    x[2,2]    findWorstP[4,2]  -2.5933280381254964e-01
    x[2,2]    findWorstP[5,2]  -7.9654363784665588e-02
    x[2,3]    allocateEach[3]  1
    x[2,3]    findWorstP[1,2]  -2.8914259086672883e-01
    x[2,3]    findWorstP[2,1]  3.0494691664784279e-01
    x[2,3]    findWorstP[2,3]  3.0494691664784279e-01
    x[2,3]    findWorstP[2,4]  3.0494691664784279e-01
    x[2,3]    findWorstP[2,5]  3.0494691664784279e-01
    x[2,3]    findWorstP[3,2]  -1.7272620308271561e-01
    x[2,3]    findWorstP[4,2]  -2.2671432353719881e-01
    x[2,3]    findWorstP[5,2]  -2.2649877650897229e-01
    x[2,4]    allocateEach[4]  1
    x[2,4]    findWorstP[1,2]  -2.4633870323525497e-01
    x[2,4]    findWorstP[2,1]  1.8944356599653639e-01
    x[2,4]    findWorstP[2,3]  1.8944356599653639e-01
    x[2,4]    findWorstP[2,4]  1.8944356599653639e-01
    x[2,4]    findWorstP[2,5]  1.8944356599653639e-01
    x[2,4]    findWorstP[3,2]  -6.7831509589363445e-02
    x[2,4]    findWorstP[4,2]  -8.7317977230606289e-02
    x[2,4]    findWorstP[5,2]  -2.2869086460032631e-01
    x[2,5]    allocateEach[5]  1
    x[2,5]    findWorstP[1,2]  -1.6775396085740916e-02
    x[2,5]    findWorstP[2,1]  1.7122204653264059e-01
    x[2,5]    findWorstP[2,3]  1.7122204653264059e-01
    x[2,5]    findWorstP[2,4]  1.7122204653264059e-01
    x[2,5]    findWorstP[2,5]  1.7122204653264059e-01
    x[2,5]    findWorstP[3,2]  -2.1305447699729380e-01
    x[2,5]    findWorstP[4,2]  -0.143208895949166
    x[2,5]    findWorstP[5,2]  -1.7070248776508976e-01
    x[3,1]    allocateEach[1]  1
    x[3,1]    findWorstP[1,3]  -3.1340700306217550e-01
    x[3,1]    findWorstP[2,3]  -3.5200662600707776e-02
    x[3,1]    findWorstP[3,1]  2.1596658430403573e-01
    x[3,1]    findWorstP[3,2]  2.1596658430403573e-01
    x[3,1]    findWorstP[3,4]  2.1596658430403573e-01
    x[3,1]    findWorstP[3,5]  2.1596658430403573e-01
    x[3,1]    findWorstP[4,3]  -2.1723590150913422e-01
    x[3,1]    findWorstP[5,3]  -2.3073001631321374e-01
    x[3,2]    allocateEach[2]  1
    x[3,2]    findWorstP[1,3]  -5.1125016642258020e-02
    x[3,2]    findWorstP[2,3]  -2.0506738950380241e-01
    x[3,2]    findWorstP[3,1]  2.5688316272502643e-01
    x[3,2]    findWorstP[3,2]  2.5688316272502643e-01
    x[3,2]    findWorstP[3,4]  2.5688316272502643e-01
    x[3,2]    findWorstP[3,5]  2.5688316272502643e-01
    x[3,2]    findWorstP[4,3]  -2.5933280381254964e-01
    x[3,2]    findWorstP[5,3]  -7.9654363784665588e-02
    x[3,3]    allocateEach[3]  1
    x[3,3]    findWorstP[1,3]  -2.8914259086672883e-01
    x[3,3]    findWorstP[2,3]  -3.0494691664784279e-01
    x[3,3]    findWorstP[3,1]  1.7272620308271561e-01
    x[3,3]    findWorstP[3,2]  1.7272620308271561e-01
    x[3,3]    findWorstP[3,4]  1.7272620308271561e-01
    x[3,3]    findWorstP[3,5]  1.7272620308271561e-01
    x[3,3]    findWorstP[4,3]  -2.2671432353719881e-01
    x[3,3]    findWorstP[5,3]  -2.2649877650897229e-01
    x[3,4]    allocateEach[4]  1
    x[3,4]    findWorstP[1,3]  -2.4633870323525497e-01
    x[3,4]    findWorstP[2,3]  -1.8944356599653639e-01
    x[3,4]    findWorstP[3,1]  6.7831509589363445e-02
    x[3,4]    findWorstP[3,2]  6.7831509589363445e-02
    x[3,4]    findWorstP[3,4]  6.7831509589363445e-02
    x[3,4]    findWorstP[3,5]  6.7831509589363445e-02
    x[3,4]    findWorstP[4,3]  -8.7317977230606289e-02
    x[3,4]    findWorstP[5,3]  -2.2869086460032631e-01
    x[3,5]    allocateEach[5]  1
    x[3,5]    findWorstP[1,3]  -1.6775396085740916e-02
    x[3,5]    findWorstP[2,3]  -1.7122204653264059e-01
    x[3,5]    findWorstP[3,1]  2.1305447699729380e-01
    x[3,5]    findWorstP[3,2]  2.1305447699729380e-01
    x[3,5]    findWorstP[3,4]  2.1305447699729380e-01
    x[3,5]    findWorstP[3,5]  2.1305447699729380e-01
    x[3,5]    findWorstP[4,3]  -0.143208895949166
    x[3,5]    findWorstP[5,3]  -1.7070248776508976e-01
    x[4,1]    allocateEach[1]  1
    x[4,1]    findWorstP[1,4]  -3.1340700306217550e-01
    x[4,1]    findWorstP[2,4]  -3.5200662600707776e-02
    x[4,1]    findWorstP[3,4]  -2.1596658430403573e-01
    x[4,1]    findWorstP[4,1]  2.1723590150913422e-01
    x[4,1]    findWorstP[4,2]  2.1723590150913422e-01
    x[4,1]    findWorstP[4,3]  2.1723590150913422e-01
    x[4,1]    findWorstP[4,5]  2.1723590150913422e-01
    x[4,1]    findWorstP[5,4]  -2.3073001631321374e-01
    x[4,2]    allocateEach[2]  1
    x[4,2]    findWorstP[1,4]  -5.1125016642258020e-02
    x[4,2]    findWorstP[2,4]  -2.0506738950380241e-01
    x[4,2]    findWorstP[3,4]  -2.5688316272502643e-01
    x[4,2]    findWorstP[4,1]  2.5933280381254964e-01
    x[4,2]    findWorstP[4,2]  2.5933280381254964e-01
    x[4,2]    findWorstP[4,3]  2.5933280381254964e-01
    x[4,2]    findWorstP[4,5]  2.5933280381254964e-01
    x[4,2]    findWorstP[5,4]  -7.9654363784665588e-02
    x[4,3]    allocateEach[3]  1
    x[4,3]    findWorstP[1,4]  -2.8914259086672883e-01
    x[4,3]    findWorstP[2,4]  -3.0494691664784279e-01
    x[4,3]    findWorstP[3,4]  -1.7272620308271561e-01
    x[4,3]    findWorstP[4,1]  2.2671432353719881e-01
    x[4,3]    findWorstP[4,2]  2.2671432353719881e-01
    x[4,3]    findWorstP[4,3]  2.2671432353719881e-01
    x[4,3]    findWorstP[4,5]  2.2671432353719881e-01
    x[4,3]    findWorstP[5,4]  -2.2649877650897229e-01
    x[4,4]    allocateEach[4]  1
    x[4,4]    findWorstP[1,4]  -2.4633870323525497e-01
    x[4,4]    findWorstP[2,4]  -1.8944356599653639e-01
    x[4,4]    findWorstP[3,4]  -6.7831509589363445e-02
    x[4,4]    findWorstP[4,1]  8.7317977230606289e-02
    x[4,4]    findWorstP[4,2]  8.7317977230606289e-02
    x[4,4]    findWorstP[4,3]  8.7317977230606289e-02
    x[4,4]    findWorstP[4,5]  8.7317977230606289e-02
    x[4,4]    findWorstP[5,4]  -2.2869086460032631e-01
    x[4,5]    allocateEach[5]  1
    x[4,5]    findWorstP[1,4]  -1.6775396085740916e-02
    x[4,5]    findWorstP[2,4]  -1.7122204653264059e-01
    x[4,5]    findWorstP[3,4]  -2.1305447699729380e-01
    x[4,5]    findWorstP[4,1]  0.143208895949166
    x[4,5]    findWorstP[4,2]  0.143208895949166
    x[4,5]    findWorstP[4,3]  0.143208895949166
    x[4,5]    findWorstP[4,5]  0.143208895949166
    x[4,5]    findWorstP[5,4]  -1.7070248776508976e-01
    x[5,1]    allocateEach[1]  1
    x[5,1]    findWorstP[1,5]  -3.1340700306217550e-01
    x[5,1]    findWorstP[2,5]  -3.5200662600707776e-02
    x[5,1]    findWorstP[3,5]  -2.1596658430403573e-01
    x[5,1]    findWorstP[4,5]  -2.1723590150913422e-01
    x[5,1]    findWorstP[5,1]  2.3073001631321374e-01
    x[5,1]    findWorstP[5,2]  2.3073001631321374e-01
    x[5,1]    findWorstP[5,3]  2.3073001631321374e-01
    x[5,1]    findWorstP[5,4]  2.3073001631321374e-01
    x[5,2]    allocateEach[2]  1
    x[5,2]    findWorstP[1,5]  -5.1125016642258020e-02
    x[5,2]    findWorstP[2,5]  -2.0506738950380241e-01
    x[5,2]    findWorstP[3,5]  -2.5688316272502643e-01
    x[5,2]    findWorstP[4,5]  -2.5933280381254964e-01
    x[5,2]    findWorstP[5,1]  7.9654363784665588e-02
    x[5,2]    findWorstP[5,2]  7.9654363784665588e-02
    x[5,2]    findWorstP[5,3]  7.9654363784665588e-02
    x[5,2]    findWorstP[5,4]  7.9654363784665588e-02
    x[5,3]    allocateEach[3]  1
    x[5,3]    findWorstP[1,5]  -2.8914259086672883e-01
    x[5,3]    findWorstP[2,5]  -3.0494691664784279e-01
    x[5,3]    findWorstP[3,5]  -1.7272620308271561e-01
    x[5,3]    findWorstP[4,5]  -2.2671432353719881e-01
    x[5,3]    findWorstP[5,1]  2.2649877650897229e-01
    x[5,3]    findWorstP[5,2]  2.2649877650897229e-01
    x[5,3]    findWorstP[5,3]  2.2649877650897229e-01
    x[5,3]    findWorstP[5,4]  2.2649877650897229e-01
    x[5,4]    allocateEach[4]  1
    x[5,4]    findWorstP[1,5]  -2.4633870323525497e-01
    x[5,4]    findWorstP[2,5]  -1.8944356599653639e-01
    x[5,4]    findWorstP[3,5]  -6.7831509589363445e-02
    x[5,4]    findWorstP[4,5]  -8.7317977230606289e-02
    x[5,4]    findWorstP[5,1]  2.2869086460032631e-01
    x[5,4]    findWorstP[5,2]  2.2869086460032631e-01
    x[5,4]    findWorstP[5,3]  2.2869086460032631e-01
    x[5,4]    findWorstP[5,4]  2.2869086460032631e-01
    x[5,5]    allocateEach[5]  1
    x[5,5]    findWorstP[1,5]  -1.6775396085740916e-02
    x[5,5]    findWorstP[2,5]  -1.7122204653264059e-01
    x[5,5]    findWorstP[3,5]  -2.1305447699729380e-01
    x[5,5]    findWorstP[4,5]  -0.143208895949166
    x[5,5]    findWorstP[5,1]  1.7070248776508976e-01
    x[5,5]    findWorstP[5,2]  1.7070248776508976e-01
    x[5,5]    findWorstP[5,3]  1.7070248776508976e-01
    x[5,5]    findWorstP[5,4]  1.7070248776508976e-01
    MARKER    'MARKER'                 'INTEND'
RHS
    RHS1      allocateEach[1]  1
    RHS1      allocateEach[2]  1
    RHS1      allocateEach[3]  1
    RHS1      allocateEach[4]  1
    RHS1      allocateEach[5]  1
    RHS1      allocateAllCash  1
BOUNDS
 UP BND1      z         1
 MI BND1      cashProportion[1]
 UP BND1      cashProportion[1]  1
 MI BND1      cashProportion[2]
 UP BND1      cashProportion[2]  1
 MI BND1      cashProportion[3]
 UP BND1      cashProportion[3]  1
 MI BND1      cashProportion[4]
 UP BND1      cashProportion[4]  1
 MI BND1      cashProportion[5]
 UP BND1      cashProportion[5]  1
 BV BND1      x[1,1]  
 BV BND1      x[1,2]  
 BV BND1      x[1,3]  
 BV BND1      x[1,4]  
 BV BND1      x[1,5]  
 BV BND1      x[2,1]  
 BV BND1      x[2,2]  
 BV BND1      x[2,3]  
 BV BND1      x[2,4]  
 BV BND1      x[2,5]  
 BV BND1      x[3,1]  
 BV BND1      x[3,2]  
 BV BND1      x[3,3]  
 BV BND1      x[3,4]  
 BV BND1      x[3,5]  
 BV BND1      x[4,1]  
 BV BND1      x[4,2]  
 BV BND1      x[4,3]  
 BV BND1      x[4,4]  
 BV BND1      x[4,5]  
 BV BND1      x[5,1]  
 BV BND1      x[5,2]  
 BV BND1      x[5,3]  
 BV BND1      x[5,4]  
 BV BND1      x[5,5]  
ENDATA
